NAME: random-43-5347
TYPE: TSP
COMMENT: size=43 seed=5347
DIMENSION: 88
EDGE_WEIGHT_TYPE: EUC_2D
NODE_COORD_SECTION
+0 29 562
-0 29 562
+1 54 394
-1 371 703
+2 377 964
-2 330 536
+3 103 526
-3 94 237
+4 33 436
-4 130 385
+5 37 859
-5 620 654
+6 292 152
-6 676 554
+7 224 642
-7 710 97
+8 923 958
-8 125 166
+9 559 235
-9 460 296
+10 509 493
-10 363 476
+11 794 479
-11 197 267
+12 992 428
-12 941 653
+13 339 125
-13 556 200
+14 181 59
-14 843 360
+15 995 143
-15 783 193
+16 22 264
-16 338 781
+17 767 833
-17 387 469
+18 138 269
-18 851 957
+19 804 243
-19 538 797
+20 283 128
-20 915 240
+21 25 863
-21 843 122
+22 929 509
-22 74 542
+23 463 686
-23 424 21
+24 111 86
-24 306 981
+25 663 112
-25 92 725
+26 352 994
-26 789 887
+27 539 433
-27 447 510
+28 160 711
-28 718 612
+29 736 814
-29 709 5
+30 778 483
-30 766 671
+31 544 531
-31 153 456
+32 433 855
-32 800 213
+33 913 623
-33 35 656
+34 381 228
-34 904 560
+35 445 481
-35 555 355
+36 473 435
-36 654 673
+37 89 118
-37 77 720
+38 534 697
-38 109 873
+39 264 866
-39 54 504
+40 406 673
-40 704 548
+41 889 431
-41 180 795
+42 300 427
-42 875 173
+43 637 137
-43 655 139
PRECEDENCE_SECTION
+0 -0
+1 -1
+2 -2
+3 -3
+4 -4
+5 -5
+6 -6
+7 -7
+8 -8
+9 -9
+10 -10
+11 -11
+12 -12
+13 -13
+14 -14
+15 -15
+16 -16
+17 -17
+18 -18
+19 -19
+20 -20
+21 -21
+22 -22
+23 -23
+24 -24
+25 -25
+26 -26
+27 -27
+28 -28
+29 -29
+30 -30
+31 -31
+32 -32
+33 -33
+34 -34
+35 -35
+36 -36
+37 -37
+38 -38
+39 -39
+40 -40
+41 -41
+42 -42
+43 -43
EOF
